(set-info :Origin "This instance was generated by: BanditFuzz-- an RL fuzzer for SMT solvers" )
(set-info :Author "Joe Scott, Fed Mora, Vijay Ganesh" )
(set-info :Contact "Joe Scott, joseph.scott@uwaterloo.ca")
(set-logic QF_BV)
(declare-const bool_0 Bool)
(declare-const bool_1 Bool)
(declare-const bool_2 Bool)
(declare-const bool_3 Bool)
(declare-const bool_4 Bool)
(declare-const bv_0 (_ BitVec 32))
(declare-const bv_1 (_ BitVec 32))
(declare-const bv_2 (_ BitVec 32))
(declare-const bv_3 (_ BitVec 32))
(declare-const bv_4 (_ BitVec 32))
(assert (bvugt (bvurem (bvlshr bv_3 bv_3) (bvsmod bv_0 bv_4)) (bvmul (bvmul #xec46de78  #x34b235ef ) (bvashr bv_2 bv_1))))
(assert (bvsge (bvudiv (bvsrem bv_1 bv_1) (bvudiv bv_0 bv_1)) (bvsub (bvsub bv_2 bv_2) (bvsdiv bv_1 #xe8484e3b ))))
(assert (bvsge (bvsrem (bvurem #xe0943861  bv_2) (bvudiv #xa48b0b1b  #xdeb2b215 )) (bvnand (bvnand #x98dcde81  #xffd318d7 ) (bvand #x123904d1  bv_0))))
(assert (=> (and (=> false true) (bvule #x667f5671  #xc903b819 )) (=> (not bool_2) (bvsle bv_1 bv_0))))
(assert (bvuge (bvnor (bvnand bv_3 bv_1) (bvadd bv_4 #xebaf3036 )) (bvand (bvand #xd8c6e369  #x1885efdb ) (bvsrem #xbadb9ee5  #xbb7168a9 ))))
(check-sat)
(exit)
